TYPE : Vertex Cover
DIMENSION: 31
EDGE_DATA_SECTION:
0 10
0 18
0 20
0 22
0 27
0 29
0 30
1 5
1 18
1 19
1 25
1 26
1 27
2 3
2 5
2 7
2 8
2 9
2 15
2 17
2 22
2 27
2 28
2 30
3 8
3 10
3 13
3 14
3 15
3 22
3 26
3 30
4 7
4 11
4 16
4 17
4 18
4 19
4 25
5 6
5 7
5 12
5 16
5 22
5 25
6 10
6 21
6 23
6 24
6 26
6 27
7 8
7 11
7 14
7 15
7 23
8 9
8 11
8 21
8 28
9 10
9 13
9 14
9 20
10 11
10 12
10 29
11 15
11 17
11 19
11 21
11 22
11 25
12 19
12 24
12 29
13 14
13 18
13 19
13 22
13 23
14 20
14 26
14 28
15 18
15 23
15 24
15 25
16 22
16 30
17 21
17 27
18 22
19 22
19 26
20 24
21 22
21 24
21 27
22 23
22 29
23 30
24 26
25 26
25 27
25 29
27 29
27 30
29 30
-1
VERTEX_DEGREE:
7.0 6.0 11.0 9.0 7.0 8.0 7.0 8.0 7.0 6.0 7.0 10.0 5.0 7.0 7.0 8.0 4.0 5.0 6.0 7.0 4.0 7.0 12.0 6.0 6.0 8.0 7.0 9.0 3.0 7.0 7.0
VERTEX_COVER:
0 1 2 4 5 6 7 8 10 11 12 13 14 15 20 21 22 26 27 29 30
EOF
